10
0, 788, 776, 625, 482, 86, 398, 275, 286, 236
788, 0, 356, 344, 525, 718, 554, 551, 636, 552
776, 356, 0, 151, 735, 691, 724, 642, 754, 570
625, 344, 151, 0, 611, 540, 590, 496, 610, 419
482, 525, 735, 611, 0, 468, 84, 229, 203, 347
86, 718, 691, 540, 468, 0, 386, 243, 289, 169
398, 554, 724, 590, 84, 386, 0, 154, 120, 277
275, 551, 642, 496, 229, 243, 154, 0, 114, 125
286, 636, 754, 610, 203, 289, 120, 114, 0, 227
236, 552, 570, 419, 347, 169, 277, 125, 227, 0
